networks/zoo_58_487/zoo_58_487-lower.txt
Number of groups: 29
Flow 1: {1 12 0} {12 4 0} {4 2 0} {2 31 0} 
Flow 2: {14 3 0} {3 32 0} 
Flow 2: {12 14 0} Flow 3: {4 33 0} 
Flow 4: {1 5 0} {5 34 0} 
Flow 5: {5 18 0} {18 6 0} {6 35 0} 
Flow 6: {19 7 0} {7 36 0} 
Flow 6: {12 19 0} Flow 7: {14 10 0} {10 39 0} 
Flow 8: {14 13 0} {13 42 0} 
Flow 9: {14 43 0} 
Flow 10: {14 15 0} {15 44 0} 
Flow 11: {12 17 0} {17 46 0} 
Flow 12: {18 47 0} 
Flow 13: {19 48 0} 
Flow 14: {14 20 0} {20 49 0} 
Flow 15: {10 21 0} {21 50 0} 
Flow 16: {15 22 0} {22 51 0} 
Flow 17: {13 27 0} {27 56 0} 
Flow 18: {13 28 0} {28 57 0} 
Flow 19: {14 29 0} {29 58 0} 
Flow 20: {2 19 0} {19 18 0} {18 13 0} Flow 21: {19 12 0} Flow 24: {14 12 0} {12 1 0} {1 30 0} 
Flow 24: {3 14 0} Flow 25: {3 13 0} {13 18 0} {18 19 0} {19 2 0} Flow 27: {18 5 0} Flow 28: {13 6 0} Flow 29: {18 7 0} Flow 40: {13 25 0} {25 54 0} 
Flow 44: {4 12 0} Flow 53: {5 1 0} Flow 55: {13 3 0} Flow 69: {13 24 0} {24 23 0} {23 52 0} 
Flow 74: {6 18 0} Flow 76: {6 13 0} Flow 77: {18 8 0} {8 12 0} Flow 80: {13 14 0} Flow 83: {13 11 0} {11 15 0} Flow 84: {18 16 0} {16 17 0} Flow 88: {15 21 0} Flow 93: {7 18 0} Flow 94: {7 19 0} Flow 96: {2 4 0} Flow 114: {8 18 0} Flow 123: {9 13 0} Flow 126: {9 18 0} Flow 128: {10 14 0} Flow 137: {21 15 0} Flow 145: {15 27 0} Flow 148: {11 13 0} Flow 162: {15 20 0} Flow 168: {15 29 0} Flow 174: {12 8 0} Flow 176: {8 37 0} 
Flow 177: {18 9 0} {9 38 0} 
Flow 182: {17 16 0} {16 45 0} 
Flow 190: {24 53 0} 
Flow 192: {15 26 0} {26 55 0} 
Flow 204: {13 9 0} Flow 206: {11 40 0} 
Flow 207: {12 41 0} 
Flow 220: {25 26 0} Flow 252: {15 14 0} Flow 255: {15 11 0} Flow 268: {29 28 0} Flow 270: {17 12 0} Flow 271: {16 18 0} Flow 346: {20 14 0} Flow 356: {20 15 0} Flow 362: {22 23 0} Flow 368: {21 10 0} Flow 372: {22 15 0} Flow 389: {23 24 0} Flow 390: {26 25 0} Flow 395: {23 22 0} Flow 396: {24 13 0} Flow 439: {25 13 0} Flow 442: {26 15 0} Flow 466: {27 13 0} Flow 467: {28 13 0} Flow 477: {28 29 0} {29 15 0} Flow 487: {29 14 0} Time taken running everything: 0 seconds
