networks/zoo_58_487/zoo_58_487-lower.sol
<?xml version = "1.0" encoding="UTF-8" standalone="yes"?>
<CPLEXSolution version="1.2">
 <header
   problemName="networks/zoo_58_487/zoo_58_487-lower.lp"
   solutionName="incumbent"
   solutionIndex="-1"
   objectiveValue="29"
   solutionTypeValue="3"
   solutionTypeString="primal"
   solutionStatusValue="101"
   solutionStatusString="integer optimal solution"
   solutionMethodString="mip"
   primalFeasible="1"
   dualFeasible="1"
   MIPNodes="0"
   MIPIterations="0"
   writeLevel="3"/>
 <quality
   epInt="1.0000000000000001e-05"
   epRHS="9.9999999999999995e-07"
   maxIntInfeas="0"
   maxPrimalInfeas="0"
   maxX="1"
   maxSlack="1"/>
 <variables>
  <variable name="Y(1,2)" index="1" value="1"/>
  <variable name="Y(2,3)" index="60" value="1"/>
  <variable name="Y(3,4)" index="119" value="1"/>
  <variable name="Y(4,5)" index="178" value="1"/>
  <variable name="Y(5,6)" index="237" value="1"/>
  <variable name="Y(6,7)" index="296" value="1"/>
  <variable name="Y(7,10)" index="357" value="1"/>
  <variable name="Y(8,13)" index="418" value="1"/>
  <variable name="Y(9,14)" index="477" value="1"/>
  <variable name="Y(10,15)" index="536" value="1"/>
  <variable name="Y(11,17)" index="596" value="1"/>
  <variable name="Y(12,18)" index="655" value="1"/>
  <variable name="Y(13,19)" index="714" value="1"/>
  <variable name="Y(14,20)" index="773" value="1"/>
  <variable name="Y(15,21)" index="832" value="1"/>
  <variable name="Y(16,22)" index="891" value="1"/>
  <variable name="Y(17,27)" index="954" value="1"/>
  <variable name="Y(18,28)" index="1013" value="1"/>
  <variable name="Y(19,29)" index="1072" value="1"/>
  <variable name="Y(24,1)" index="1334" value="1"/>
  <variable name="Y(40,25)" index="2286" value="1"/>
  <variable name="Y(69,23)" index="3966" value="1"/>
  <variable name="Y(176,8)" index="10157" value="1"/>
  <variable name="Y(177,9)" index="10216" value="1"/>
  <variable name="Y(182,16)" index="10513" value="1"/>
  <variable name="Y(190,24)" index="10985" value="1"/>
  <variable name="Y(192,26)" index="11103" value="1"/>
  <variable name="Y(206,11)" index="11900" value="1"/>
  <variable name="Y(207,12)" index="11959" value="1"/>
  <variable name="X(1,5,4)" index="28249" value="1"/>
  <variable name="X(1,12,1)" index="28733" value="1"/>
  <variable name="X(1,30,24)" index="29243" value="1"/>
  <variable name="X(2,4,96)" index="29802" value="1"/>
  <variable name="X(2,19,20)" index="30213" value="1"/>
  <variable name="X(2,31,1)" index="30681" value="1"/>
  <variable name="X(3,13,25)" index="31192" value="1"/>
  <variable name="X(3,14,24)" index="31678" value="1"/>
  <variable name="X(3,32,2)" index="32143" value="1"/>
  <variable name="X(4,2,1)" index="32629" value="1"/>
  <variable name="X(4,12,44)" index="33159" value="1"/>
  <variable name="X(4,33,3)" index="33605" value="1"/>
  <variable name="X(5,1,53)" index="34142" value="1"/>
  <variable name="X(5,18,5)" index="34581" value="1"/>
  <variable name="X(5,34,4)" index="35067" value="1"/>
  <variable name="X(6,13,76)" index="35626" value="1"/>
  <variable name="X(6,18,74)" index="36111" value="1"/>
  <variable name="X(6,35,5)" index="36529" value="1"/>
  <variable name="X(7,18,93)" index="37104" value="1"/>
  <variable name="X(7,19,94)" index="37592" value="1"/>
  <variable name="X(7,36,6)" index="37991" value="1"/>
  <variable name="X(8,12,77)" index="38549" value="1"/>
  <variable name="X(8,18,114)" index="39073" value="1"/>
  <variable name="X(8,37,176)" index="39622" value="1"/>
  <variable name="X(9,13,123)" index="40056" value="1"/>
  <variable name="X(9,18,126)" index="40546" value="1"/>
  <variable name="X(9,38,177)" index="41084" value="1"/>
  <variable name="X(10,14,128)" index="41522" value="1"/>
  <variable name="X(10,21,15)" index="41896" value="1"/>
  <variable name="X(10,39,7)" index="42375" value="1"/>
  <variable name="X(11,13,148)" index="43003" value="1"/>
  <variable name="X(11,15,83)" index="43425" value="1"/>
  <variable name="X(11,40,206)" index="44035" value="1"/>
  <variable name="X(12,1,24)" index="44340" value="1"/>
  <variable name="X(12,4,1)" index="44804" value="1"/>
  <variable name="X(12,8,174)" index="45464" value="1"/>
  <variable name="X(12,14,2)" index="45779" value="1"/>
  <variable name="X(12,17,11)" index="46275" value="1"/>
  <variable name="X(12,19,6)" index="46757" value="1"/>
  <variable name="X(12,41,207)" index="47445" value="1"/>
  <variable name="X(13,3,55)" index="47780" value="1"/>
  <variable name="X(13,6,28)" index="48240" value="1"/>
  <variable name="X(13,9,204)" index="48903" value="1"/>
  <variable name="X(13,11,83)" index="49269" value="1"/>
  <variable name="X(13,14,80)" index="49753" value="1"/>
  <variable name="X(13,18,25)" index="50185" value="1"/>
  <variable name="X(13,24,69)" index="50716" value="1"/>
  <variable name="X(13,25,40)" index="51174" value="1"/>
  <variable name="X(13,27,17)" index="51638" value="1"/>
  <variable name="X(13,28,18)" index="52126" value="1"/>
  <variable name="X(13,42,8)" index="52603" value="1"/>
  <variable name="X(14,3,2)" index="53084" value="1"/>
  <variable name="X(14,10,7)" index="53576" value="1"/>
  <variable name="X(14,12,24)" index="54080" value="1"/>
  <variable name="X(14,13,8)" index="54551" value="1"/>
  <variable name="X(14,15,10)" index="55040" value="1"/>
  <variable name="X(14,20,14)" index="55531" value="1"/>
  <variable name="X(14,29,19)" index="56023" value="1"/>
  <variable name="X(14,43,9)" index="56500" value="1"/>
  <variable name="X(15,11,255)" index="57233" value="1"/>
  <variable name="X(15,14,252)" index="57717" value="1"/>
  <variable name="X(15,20,162)" index="58114" value="1"/>
  <variable name="X(15,21,88)" index="58527" value="1"/>
  <variable name="X(15,22,16)" index="58942" value="1"/>
  <variable name="X(15,26,192)" index="59605" value="1"/>
  <variable name="X(15,27,145)" index="60045" value="1"/>
  <variable name="X(15,29,168)" index="60555" value="1"/>
  <variable name="X(15,44,10)" index="60884" value="1"/>
  <variable name="X(16,17,84)" index="61445" value="1"/>
  <variable name="X(16,18,271)" index="62119" value="1"/>
  <variable name="X(16,45,182)" index="62517" value="1"/>
  <variable name="X(17,12,270)" index="63092" value="1"/>
  <variable name="X(17,16,182)" index="63491" value="1"/>
  <variable name="X(17,46,11)" index="63807" value="1"/>
  <variable name="X(18,5,27)" index="64310" value="1"/>
  <variable name="X(18,6,5)" index="64775" value="1"/>
  <variable name="X(18,7,29)" index="65286" value="1"/>
  <variable name="X(18,8,77)" index="65821" value="1"/>
  <variable name="X(18,9,177)" index="66408" value="1"/>
  <variable name="X(18,13,20)" index="66738" value="1"/>
  <variable name="X(18,16,84)" index="67289" value="1"/>
  <variable name="X(18,19,25)" index="67717" value="1"/>
  <variable name="X(18,47,12)" index="68191" value="1"/>
  <variable name="X(19,2,25)" index="68691" value="1"/>
  <variable name="X(19,7,6)" index="69159" value="1"/>
  <variable name="X(19,12,21)" index="69661" value="1"/>
  <variable name="X(19,18,20)" index="70147" value="1"/>
  <variable name="X(19,48,13)" index="70627" value="1"/>
  <variable name="X(20,14,346)" index="71447" value="1"/>
  <variable name="X(20,15,356)" index="71944" value="1"/>
  <variable name="X(20,49,14)" index="72089" value="1"/>
  <variable name="X(21,10,368)" index="72930" value="1"/>
  <variable name="X(21,15,137)" index="73186" value="1"/>
  <variable name="X(21,50,15)" index="73551" value="1"/>
  <variable name="X(22,15,372)" index="74395" value="1"/>
  <variable name="X(22,23,362)" index="74872" value="1"/>
  <variable name="X(22,51,16)" index="75013" value="1"/>
  <variable name="X(23,22,395)" index="75879" value="1"/>
  <variable name="X(23,24,389)" index="76360" value="1"/>
  <variable name="X(23,52,69)" index="76527" value="1"/>
  <variable name="X(24,13,396)" index="77341" value="1"/>
  <variable name="X(24,23,69)" index="77501" value="1"/>
  <variable name="X(24,53,190)" index="78109" value="1"/>
  <variable name="X(25,13,439)" index="78845" value="1"/>
  <variable name="X(25,26,220)" index="79113" value="1"/>
  <variable name="X(25,54,40)" index="79420" value="1"/>
  <variable name="X(26,15,442)" index="80309" value="1"/>
  <variable name="X(26,25,390)" index="80744" value="1"/>
  <variable name="X(26,55,192)" index="81033" value="1"/>
  <variable name="X(27,13,466)" index="81794" value="1"/>
  <variable name="X(27,56,17)" index="81832" value="1"/>
  <variable name="X(28,13,467)" index="82769" value="1"/>
  <variable name="X(28,29,477)" index="83266" value="1"/>
  <variable name="X(28,57,18)" index="83294" value="1"/>
  <variable name="X(29,14,487)" index="84250" value="1"/>
  <variable name="X(29,15,477)" index="84727" value="1"/>
  <variable name="X(29,28,268)" index="85005" value="1"/>
  <variable name="X(29,58,19)" index="85243" value="1"/>
 </variables>
</CPLEXSolution>
